c gencount --qnf 3
c $Id: gencount.c,v 1.19 2003/11/17 21:14:59 biere Exp $
p cnf 80 202
e 43 44 45 46 47 48 49 50 51 52 53 54 55 56 71 72 73 74 75 76 77 0
r 0.364 80 0
e 29 30 31 32 33 34 35 36 37 38 39 40 41 42 64 65 66 67 68 69 70 0
r 0.367 79 0
e 15 16 17 18 19 20 21 22 23 24 25 26 27 28 57 58 59 60 61 62 63 0
r 0.146 78 0
e 1 2 3 4 5 6 7 8 9 10 11 12 13 14 0
-80 -29 43 0
-80 29 -43 0
-80 -30 44 0
-80 30 -44 0
-80 -31 45 0
-80 31 -45 0
-80 -32 46 0
-80 32 -46 0
-80 -33 47 0
-80 33 -47 0
-80 -34 48 0
-80 34 -48 0
-80 -35 49 0
-80 35 -49 0
-80 -36 71 0
-80 36 -71 0
-80 -37 72 0
-80 37 -72 0
-80 -38 73 0
-80 38 -73 0
-80 -39 74 0
-80 39 -74 0
-80 -40 75 0
-80 40 -75 0
-80 -41 76 0
-80 41 -76 0
-80 -42 77 0
-80 42 -77 0
80 -29 71 0
80 29 -71 0
80 -30 72 0
80 30 -72 0
80 -31 73 0
80 31 -73 0
80 -32 74 0
80 32 -74 0
80 -33 75 0
80 33 -75 0
80 -34 76 0
80 34 -76 0
80 -35 77 0
80 35 -77 0
80 -36 50 0
80 36 -50 0
80 -37 51 0
80 37 -51 0
80 -38 52 0
80 38 -52 0
80 -39 53 0
80 39 -53 0
80 -40 54 0
80 40 -54 0
80 -41 55 0
80 41 -55 0
80 -42 56 0
80 42 -56 0
-79 -15 29 0
-79 15 -29 0
-79 -16 30 0
-79 16 -30 0
-79 -17 31 0
-79 17 -31 0
-79 -18 32 0
-79 18 -32 0
-79 -19 33 0
-79 19 -33 0
-79 -20 34 0
-79 20 -34 0
-79 -21 35 0
-79 21 -35 0
-79 -22 64 0
-79 22 -64 0
-79 -23 65 0
-79 23 -65 0
-79 -24 66 0
-79 24 -66 0
-79 -25 67 0
-79 25 -67 0
-79 -26 68 0
-79 26 -68 0
-79 -27 69 0
-79 27 -69 0
-79 -28 70 0
-79 28 -70 0
79 -15 64 0
79 15 -64 0
79 -16 65 0
79 16 -65 0
79 -17 66 0
79 17 -66 0
79 -18 67 0
79 18 -67 0
79 -19 68 0
79 19 -68 0
79 -20 69 0
79 20 -69 0
79 -21 70 0
79 21 -70 0
79 -22 36 0
79 22 -36 0
79 -23 37 0
79 23 -37 0
79 -24 38 0
79 24 -38 0
79 -25 39 0
79 25 -39 0
79 -26 40 0
79 26 -40 0
79 -27 41 0
79 27 -41 0
79 -28 42 0
79 28 -42 0
-78 -1 15 0
-78 1 -15 0
-78 -2 16 0
-78 2 -16 0
-78 -3 17 0
-78 3 -17 0
-78 -4 18 0
-78 4 -18 0
-78 -5 19 0
-78 5 -19 0
-78 -6 20 0
-78 6 -20 0
-78 -7 21 0
-78 7 -21 0
-78 -8 57 0
-78 8 -57 0
-78 -9 58 0
-78 9 -58 0
-78 -10 59 0
-78 10 -59 0
-78 -11 60 0
-78 11 -60 0
-78 -12 61 0
-78 12 -61 0
-78 -13 62 0
-78 13 -62 0
-78 -14 63 0
-78 14 -63 0
78 -1 57 0
78 1 -57 0
78 -2 58 0
78 2 -58 0
78 -3 59 0
78 3 -59 0
78 -4 60 0
78 4 -60 0
78 -5 61 0
78 5 -61 0
78 -6 62 0
78 6 -62 0
78 -7 63 0
78 7 -63 0
78 -8 22 0
78 8 -22 0
78 -9 23 0
78 9 -23 0
78 -10 24 0
78 10 -24 0
78 -11 25 0
78 11 -25 0
78 -12 26 0
78 12 -26 0
78 -13 27 0
78 13 -27 0
78 -14 28 0
78 14 -28 0
-43 0
-47 0
-48 0
-49 0
-4 7 0
-4 3 0
4 -7 -3 0
-3 6 0
-3 2 0
3 -6 -2 0
-2 5 0
2 -5 0
-14 7 3 0
-14 -7 -3 0
14 -7 3 0
14 7 -3 0
-13 6 2 0
-13 -6 -2 0
13 -6 2 0
13 6 -2 0
-12 -5 0
12 5 0
-8 1 4 0
-1 8 0
8 -4 0
-11 14 0
-11 10 0
11 -14 -10 0
-10 13 0
-10 9 0
10 -13 -9 0
-9 12 0
9 -12 0
50 0
